WARNING: for repeatability, setting FPU to use double precision
============================[ Problem Statistics ]=============================
|                                                                             |
|  Number of variables:            50                                         |
|  Number of clauses:             218                                         |
|  Parse time:                   0.00 s                                       |
|                                                                             |
============================[ Search Statistics ]==============================
| Conflicts |          ORIGINAL         |          LEARNT          | Progress |
|           |    Vars  Clauses Literals |    Limit  Clauses Lit/Cl |          |
===============================================================================
===============================================================================
restarts              : 1
conflicts             : 83             (53861 /sec)
decisions             : 89             (0.00 % random) (57755 /sec)
propagations          : 1235           (801428 /sec)
conflict literals     : 351            (21.83 % deleted)
Memory used           : 20.00 MB
CPU time              : 0.001541 s

UNSATISFIABLE
